NAME : R103.1292672.tour
COMMENT : Cost = 0_1292672
COMMENT : Found by LKH [Keld Helsgaun] Wed Sep 13 18:58:40 2017
TYPE : TOUR
DIMENSION : 113
TOUR_SECTION
1
3
23
76
57
5
26
55
110
61
46
84
6
100
7
109
8
20
12
9
47
48
49
83
19
90
102
51
34
77
80
11
32
111
27
40
24
68
56
25
30
4
113
41
54
13
69
81
112
28
70
31
10
67
21
52
2
106
72
66
79
35
36
82
78
29
103
53
63
89
85
18
94
60
108
43
44
16
58
42
75
73
74
22
59
104
93
99
15
45
39
87
17
62
86
92
101
38
107
37
65
50
64
91
33
71
105
95
97
96
98
88
14
-1
EOF
